\ Model Baseline
\ LP format - for model browsing. Use MPS format to capture full model detail.
Maximize
  obj_xray_no
Subject To
 sumToOne_V0: V0_0000 + V0_0001 + V0_0010 + V0_0011 + V0_0100 + V0_0101
   + V0_0110 + V0_0111 + V0_1000 + V0_1001 + V0_1010 + V0_1011 + V0_1100
   + V0_1101 + V0_1110 + V0_1111 = 1
 c_asia_yes: V0_1000 + V0_1001 + V0_1010 + V0_1011 + V0_1100 + V0_1101
   + V0_1110 + V0_1111 = 0.01
 c_smoke_no: V0_0100 + V0_0101 + V0_0110 + V0_0111 + V0_1100 + V0_1101
   + V0_1110 + V0_1111 = 0.5
 c_smoke_yes: V0_0010 + V0_0011 + V0_0110 + V0_0111 + V0_1010 + V0_1011
   + V0_1110 + V0_1111 = 0.5
 c_asia_no: V0_0001 + V0_0011 + V0_0101 + V0_0111 + V0_1001 + V0_1011
   + V0_1101 + V0_1111 = 0.99
 c_aux0: - V0_1001 + aux0 = 0
 c_aux1: - V0_1011 + aux1 = 0
 c_aux2: - V0_1101 + aux2 = 0
 c_aux3: - V0_1111 + aux3 = 0
 R9: - aux0 - aux1 - aux2 - aux3 + C20 = 0
 R10: C20 = 0
 c_aux4: - V0_1100 + aux4 = 0
 c_aux5: - V0_1101 + aux5 = 0
 c_aux6: - V0_1110 + aux6 = 0
 c_aux7: - V0_1111 + aux7 = 0
 c_aux8: - 0.37 V0_1000 + aux8 = 0
 c_aux9: - 0.37 V0_1001 + aux9 = 0
 c_aux10: - 0.37 V0_1010 + aux10 = 0
 c_aux11: - 0.37 V0_1011 + aux11 = 0
 c_aux12: - 0.37 V0_1100 + aux12 = 0
 c_aux13: - 0.37 V0_1101 + aux13 = 0
 c_aux14: - 0.37 V0_1110 + aux14 = 0
 c_aux15: - 0.37 V0_1111 + aux15 = 0
 R23: - aux4 - aux5 - aux6 - aux7 + C33 = 0
 R24: - aux8 - aux9 - aux10 - aux11 - aux12 - aux13 - aux14 - aux15 + C33
   = 0
 c_aux16: - V0_0110 + aux16 = 0
 c_aux17: - V0_0111 + aux17 = 0
 c_aux18: - V0_1110 + aux18 = 0
 c_aux19: - V0_1111 + aux19 = 0
 R29: - aux16 - aux17 - aux18 - aux19 + C38 = 0
 R30: C38 = 0
 c_aux20: - 0.05 V0_1000 + aux20 = 0
 c_aux21: - 0.05 V0_1001 + aux21 = 0
 c_aux22: - 0.05 V0_1010 + aux22 = 0
 c_aux23: - 0.05 V0_1011 + aux23 = 0
 c_aux24: - 0.05 V0_1100 + aux24 = 0
 c_aux25: - 0.05 V0_1101 + aux25 = 0
 c_aux26: - 0.05 V0_1110 + aux26 = 0
 c_aux27: - 0.05 V0_1111 + aux27 = 0
 c_obj_tub_yes: - aux20 - aux21 - aux22 - aux23 - aux24 - aux25 - aux26
   - aux27 + obj_tub_yes = 0
 c_aux28: - 0.99 V0_0001 + aux28 = 0
 c_aux29: - 0.99 V0_0011 + aux29 = 0
 c_aux30: - 0.99 V0_0101 + aux30 = 0
 c_aux31: - 0.99 V0_0111 + aux31 = 0
 c_aux32: - 0.99 V0_1001 + aux32 = 0
 c_aux33: - 0.99 V0_1011 + aux33 = 0
 c_aux34: - 0.99 V0_1101 + aux34 = 0
 c_aux35: - 0.99 V0_1111 + aux35 = 0
 c_obj_tub_no: - aux28 - aux29 - aux30 - aux31 - aux32 - aux33 - aux34
   - aux35 + obj_tub_no = 0
 c_aux36: - 0.1 V0_0010 + aux36 = 0
 c_aux37: - 0.1 V0_0011 + aux37 = 0
 c_aux38: - 0.1 V0_0110 + aux38 = 0
 c_aux39: - 0.1 V0_0111 + aux39 = 0
 c_aux40: - 0.1 V0_1010 + aux40 = 0
 c_aux41: - 0.1 V0_1011 + aux41 = 0
 c_aux42: - 0.1 V0_1110 + aux42 = 0
 c_aux43: - 0.1 V0_1111 + aux43 = 0
 c_obj_lung_yes: - aux36 - aux37 - aux38 - aux39 - aux40 - aux41 - aux42
   - aux43 + obj_lung_yes = 0
 c_aux44: - 0.99 V0_0100 + aux44 = 0
 c_aux45: - 0.99 V0_0101 + aux45 = 0
 c_aux46: - 0.99 V0_0110 + aux46 = 0
 c_aux47: - 0.99 V0_0111 + aux47 = 0
 c_aux48: - 0.99 V0_1100 + aux48 = 0
 c_aux49: - 0.99 V0_1101 + aux49 = 0
 c_aux50: - 0.99 V0_1110 + aux50 = 0
 c_aux51: - 0.99 V0_1111 + aux51 = 0
 c_obj_lung_no: - aux44 - aux45 - aux46 - aux47 - aux48 - aux49 - aux50
   - aux51 + obj_lung_no = 0
 c_aux52: - 0.6 V0_0010 + aux52 = 0
 c_aux53: - 0.6 V0_0011 + aux53 = 0
 c_aux54: - 0.6 V0_0110 + aux54 = 0
 c_aux55: - 0.6 V0_0111 + aux55 = 0
 c_aux56: - 0.6 V0_1010 + aux56 = 0
 c_aux57: - 0.6 V0_1011 + aux57 = 0
 c_aux58: - 0.6 V0_1110 + aux58 = 0
 c_aux59: - 0.6 V0_1111 + aux59 = 0
 c_obj_bronc_yes: - aux52 - aux53 - aux54 - aux55 - aux56 - aux57 - aux58
   - aux59 + obj_bronc_yes = 0
 c_aux60: - 0.7 V0_0100 + aux60 = 0
 c_aux61: - 0.7 V0_0101 + aux61 = 0
 c_aux62: - 0.7 V0_0110 + aux62 = 0
 c_aux63: - 0.7 V0_0111 + aux63 = 0
 c_aux64: - 0.7 V0_1100 + aux64 = 0
 c_aux65: - 0.7 V0_1101 + aux65 = 0
 c_aux66: - 0.7 V0_1110 + aux66 = 0
 c_aux67: - 0.7 V0_1111 + aux67 = 0
 c_obj_bronc_no: - aux60 - aux61 - aux62 - aux63 - aux64 - aux65 - aux66
   - aux67 + obj_bronc_no = 0
 c_aux68: - 0.0495 V0_1100 + aux68 = 0
 c_aux69: - 0.0495 V0_1101 + aux69 = 0
 c_aux70: - 0.0495 V0_1110 + aux70 = 0
 c_aux71: - 0.0495 V0_1111 + aux71 = 0
 c_obj_either_yes: - aux68 - aux69 - aux70 - aux71 + obj_either_yes = 0
 c_aux72: - 0.9801 V0_0101 + aux72 = 0
 c_aux73: - 0.9801 V0_0111 + aux73 = 0
 c_aux74: - 0.9801 V0_1101 + aux74 = 0
 c_aux75: - 0.9801 V0_1111 + aux75 = 0
 c_obj_either_no: - aux72 - aux73 - aux74 - aux75 + obj_either_no = 0
 c_aux76: - 0.04851 V0_1100 + aux76 = 0
 c_aux77: - 0.04851 V0_1101 + aux77 = 0
 c_aux78: - 0.04851 V0_1110 + aux78 = 0
 c_aux79: - 0.04851 V0_1111 + aux79 = 0
 c_obj_xray_yes: - aux76 - aux77 - aux78 - aux79 + obj_xray_yes = 0
 c_aux80: - 0.931095 V0_0101 + aux80 = 0
 c_aux81: - 0.931095 V0_0111 + aux81 = 0
 c_aux82: - 0.931095 V0_1101 + aux82 = 0
 c_aux83: - 0.931095 V0_1111 + aux83 = 0
 c_obj_xray_no: - aux80 - aux81 - aux82 - aux83 + obj_xray_no = 0
 c_aux84: - 0.02673 V0_1110 + aux84 = 0
 c_aux85: - 0.02673 V0_1111 + aux85 = 0
 c_obj_dysp_yes: - aux84 - aux85 + obj_dysp_yes = 0
 c_aux86: - 0.617463 V0_0101 + aux86 = 0
 c_aux87: - 0.617463 V0_0111 + aux87 = 0
 c_aux88: - 0.617463 V0_1101 + aux88 = 0
 c_aux89: - 0.617463 V0_1111 + aux89 = 0
 c_obj_dysp_no: - aux86 - aux87 - aux88 - aux89 + obj_dysp_no = 0
Bounds
 V0_0000 <= 1
 V0_0001 <= 1
 V0_0010 <= 1
 V0_0011 <= 1
 V0_0100 <= 1
 V0_0101 <= 1
 V0_0110 <= 1
 V0_0111 <= 1
 V0_1000 <= 1
 V0_1001 <= 1
 V0_1010 <= 1
 V0_1011 <= 1
 V0_1100 <= 1
 V0_1101 <= 1
 V0_1110 <= 1
 V0_1111 <= 1
 aux0 <= 1
 aux1 <= 1
 aux2 <= 1
 aux3 <= 1
 C20 <= 1
 aux4 <= 1
 aux5 <= 1
 aux6 <= 1
 aux7 <= 1
 aux8 <= 1
 aux9 <= 1
 aux10 <= 1
 aux11 <= 1
 aux12 <= 1
 aux13 <= 1
 aux14 <= 1
 aux15 <= 1
 C33 <= 1
 aux16 <= 1
 aux17 <= 1
 aux18 <= 1
 aux19 <= 1
 C38 <= 1
 aux20 <= 1
 aux21 <= 1
 aux22 <= 1
 aux23 <= 1
 aux24 <= 1
 aux25 <= 1
 aux26 <= 1
 aux27 <= 1
 obj_tub_yes <= 1
 aux28 <= 1
 aux29 <= 1
 aux30 <= 1
 aux31 <= 1
 aux32 <= 1
 aux33 <= 1
 aux34 <= 1
 aux35 <= 1
 obj_tub_no <= 1
 aux36 <= 1
 aux37 <= 1
 aux38 <= 1
 aux39 <= 1
 aux40 <= 1
 aux41 <= 1
 aux42 <= 1
 aux43 <= 1
 obj_lung_yes <= 1
 aux44 <= 1
 aux45 <= 1
 aux46 <= 1
 aux47 <= 1
 aux48 <= 1
 aux49 <= 1
 aux50 <= 1
 aux51 <= 1
 obj_lung_no <= 1
 aux52 <= 1
 aux53 <= 1
 aux54 <= 1
 aux55 <= 1
 aux56 <= 1
 aux57 <= 1
 aux58 <= 1
 aux59 <= 1
 obj_bronc_yes <= 1
 aux60 <= 1
 aux61 <= 1
 aux62 <= 1
 aux63 <= 1
 aux64 <= 1
 aux65 <= 1
 aux66 <= 1
 aux67 <= 1
 obj_bronc_no <= 1
 aux68 <= 1
 aux69 <= 1
 aux70 <= 1
 aux71 <= 1
 obj_either_yes <= 1
 aux72 <= 1
 aux73 <= 1
 aux74 <= 1
 aux75 <= 1
 obj_either_no <= 1
 aux76 <= 1
 aux77 <= 1
 aux78 <= 1
 aux79 <= 1
 obj_xray_yes <= 1
 aux80 <= 1
 aux81 <= 1
 aux82 <= 1
 aux83 <= 1
 obj_xray_no <= 1
 aux84 <= 1
 aux85 <= 1
 obj_dysp_yes <= 1
 aux86 <= 1
 aux87 <= 1
 aux88 <= 1
 aux89 <= 1
 obj_dysp_no <= 1
End
